60
Lattice="16.632191499999998 0.0 0.0 0.0 16.918427100000002 0.0 0.0 0.0 17.0170705" Properties=species:S:1:pos:R:3 pbc="T T T"
C       10.52626580       9.04585140      11.17539500
C       11.42370980       8.61688910      10.15109526
C        9.64451350       8.14329440      11.75840726
C       11.40694140       7.30068780       9.71198540
C       11.50399500       7.00172840       8.29739206
C       11.53753280       9.68228490       9.16800474
C       11.63219150       9.39434690       7.82773827
C       11.61456860       8.02907410       7.39788560
C        7.86798630       9.81833670      11.73138697
C        8.78327610      10.75417130      11.13215278
C        8.29041300       8.53561020      12.00891018
C       10.08886220      10.37684670      10.84641385
C       10.71153280      10.76875720       9.61934991
C        8.05505100      11.54128180      10.17705881
C        8.65684310      11.91842710       8.99790051
C       10.01118760      11.52843290       8.71586122
C        6.19023110       7.61330300      11.17422235
C        5.75397150       8.94470850      10.84719514
C        7.43791840       7.41298980      11.73390999
C        6.57456090      10.02718460      11.13042606
C        6.68982370      11.09489130      10.18631988
C        5.01758950       8.88937540       9.64141523
C        5.12812360       9.91657780       8.70791483
C        5.98004440      11.04055100       8.97184249
C        7.81554950       5.47941120      10.28889172
C        6.52163670       5.68627960       9.71124842
C        8.26464600       6.32630420      11.31376598
C        5.72692340       6.73660550      10.15576174
C        5.00000000       7.52412470       9.18903499
C        6.62087860       5.38993020       8.30083369
C        5.92058040       6.14950300       7.37463793
C        5.09465230       7.23600480       7.82842594
C       10.49189390       6.36456200      10.30896890
C       10.02793240       5.48422020       9.27916308
C        9.62913610       6.77624670      11.31077004
C        8.71197290       5.05404880       9.25778566
C        7.97524860       5.00000000       8.01900692
C       10.65207620       5.87773840       8.02268653
C        9.94244620       5.82345340       6.84865923
C        8.57720570       5.37706120       6.86063973
C        6.10598610       7.87232470       5.85259130
C        6.54337350       6.54129140       6.15301866
C        7.84899820       6.16413740       5.87718628
C        6.98772050       8.77495660       5.25973048
C        6.14008230      10.55372660       6.71638073
C        5.22510420       9.61753550       7.31963325
C        5.20846150       8.30134300       6.89180873
C        7.00293400      10.14201750       5.71593430
C        8.81639290      11.43915200       6.70290048
C        7.91995570      11.86447000       7.73841111
C        6.60400760      11.43410050       7.74871018
C        8.36735290      10.59213610       5.72475304
C       10.44193350       9.30526920       5.85319061
C       10.90525580      10.18196250       6.88142728
C       10.11037150      11.23225670       7.29523656
C        9.19420280       9.50553970       5.25691697
C        8.76431570       7.10008220       5.29257033
C       10.05776530       6.89123260       5.89521567
C       10.87824290       7.97383540       6.17013509
C        8.34186090       8.38283160       5.00955107
60
Lattice="16.632191499999998 0.0 0.0 0.0 16.918427100000002 0.0 0.0 0.0 17.0170705" Properties=species:S:1:pos:R:3 pbc="T T T"
C       10.50444516       9.12262872      11.18903446
C       11.41631303       8.72524808      10.14059000
C        9.65472879       8.18984883      11.73341576
C       11.44548961       7.40926337       9.69548474
C       11.55291762       7.11387321       8.30455287
C       11.49288492       9.79396724       9.19224340
C       11.59753484       9.50950818       7.84676987
C       11.62757001       8.14445204       7.39421258
C        7.82082567       9.80187083      11.70838628
C        8.70289774      10.76907850      11.11097115
C        8.28776154       8.53466821      12.00902191
C       10.02085695      10.43754805      10.86771621
C       10.62947076      10.85095070       9.64225761
C        7.94764649      11.53029482      10.18051062
C        8.53590982      11.92821262       8.97872285
C        9.90303989      11.58572193       8.69168594
C        6.22104707       7.53962757      11.16727609
C        5.73858785       8.85499677      10.86386426
C        7.47496515       7.38298005      11.75886898
C        6.52089950       9.96545161      11.14072773
C        6.59882966      11.03653051      10.17249293
C        5.00458553       8.77399801       9.61617209
C        5.07920345       9.80443226       8.69446392
C        5.89137918      10.95745237       8.98255052
C        7.91984712       5.46375847      10.31391378
C        6.61950294       5.62534394       9.72757934
C        8.33911391       6.32580881      11.30639119
C        5.78861791       6.64729492      10.13146159
C        5.03465331       7.40896512       9.17015093
C        6.72902683       5.33263856       8.30472764
C        6.00264652       6.06730860       7.39772980
C        5.13930319       7.12432406       7.84948518
C       10.56366985       6.44177313      10.30863374
C       10.13071447       5.54577559       9.25774166
C        9.68707003       6.82309723      11.28795712
C        8.83056938       5.06993991       9.25455533
C        8.09618015       4.99021273       8.03832913
C       10.74074447       5.96083637       8.04679653
C       10.03344128       5.88181871       6.85539040
C        8.68461131       5.38805224       6.84380346
C        6.12781367       7.79555137       5.82766678
C        6.61138702       6.48059350       6.14292138
C        7.92937885       6.14923489       5.89119963
C        6.97750954       8.72840550       5.28497065
C        6.06830952      10.47650977       6.72964203
C        5.18656140       9.50895670       7.30872330
C        5.21586329       8.19298516       6.86675808
C        6.94500403      10.09516456       5.69977441
C        8.71208888      11.45479769       6.71048868
C        7.80135438      11.84857139       7.76277084
C        6.50122760      11.37253813       7.76744521
C        8.29288286      10.59262650       5.72063848
C       10.41111068       9.37894534       5.83000936
C       10.84355459      10.27127430       6.86049207
C       10.01249977      11.29318762       7.29579513
C        9.15715073       9.53554867       5.27845577
C        8.81147476       7.11655366       5.31528669
C       10.11142517       6.95297203       5.89822427
C       10.89362067       8.06354959       6.15066984
C        8.34451000       8.38377819       4.98550823
60
Lattice="16.632191499999998 0.0 0.0 0.0 16.918427100000002 0.0 0.0 0.0 17.0170705" Properties=species:S:1:pos:R:3 pbc="T T T"
C       10.47995833       9.19859775      11.16404296
C       11.40513909       8.83328291      10.12408934
C        9.66331312       8.23673140      11.74057657
C       11.48022510       7.51911810       9.71972340
C       11.59789664       7.22765707       8.32358447
C       11.44436657       9.90402335       9.18857038
C       11.55888023       9.62338981       7.82376918
C       11.63653687       8.26021343       7.37303095
C        7.77426841       9.78376911      11.70849801
C        8.62204809      10.78117145      11.13227351
C        8.28514458       8.53363426      12.03192961
C        9.95077468      10.49583908      10.87116802
C       10.54459019      10.93023021       9.62307995
C        7.84069086      11.51556617      10.15633534
C        8.41470869      11.93377166       8.97177659
C        9.79295870      11.63920177       8.70835506
C        6.25441551       7.46707247      11.19223508
C        5.72634447       8.76480281      10.87416593
C        7.51303665       7.35428149      11.74504203
C        6.46942524       9.90188347      11.11548459
C        6.50992781      10.97502962      10.15904202
C        4.99561610       8.65823708       9.62688012
C        5.03422693       9.69064774       8.71948598
C        5.80566808      10.87130999       8.99888144
C        8.02462749       5.45175521      10.30653899
C        6.71943618       5.56786089       9.70327919
C        8.41355374       6.32791261      11.28750713
C        5.85339173       6.56019185      10.13535554
C        5.07330452       7.29508508       9.19324280
C        6.83910862       5.27915615       8.32578688
C        6.08753119       5.98802833       7.39739464
C        5.18782448       7.01426964       7.82806376
C       10.63270745       6.52144217      10.28582082
C       10.23128567       5.61088052       9.25451133
C        9.74333361       6.87194109      11.30727933
C        8.94853903       5.08996030       9.27866533
C        8.21737960       4.98465187       8.04506030
C       10.82645865       6.04697820       8.02996026
C       10.12234400       5.94332415       6.83046588
C        8.79156791       5.40278498       6.83370618
C        6.15230729       7.71958658       5.84168013
C        6.68147742       6.42230621       6.16816155
C        8.01023062       6.13714671       5.90446093
C        6.96892941       8.68152639       5.27406070
C        5.99927529      10.39683515       6.70459138
C        5.15183142       9.39909891       7.29256341
C        5.22704221       8.08495166       6.87434628
C        6.88874450      10.04631844       5.72413414
C        8.60730238      11.46679368       6.72922371
C        7.68338017      11.82854333       7.75865628
C        6.40065871      11.30742629       7.74426396
C        8.21844106      10.59051763       5.69970327
C       10.37773538       9.45150090       5.83056793
C       10.77877402      10.35837834       6.88203087
C        9.91256120      11.35066575       7.31851149
C        9.11907393       9.56424625       5.28146437
C        8.85803025       7.13466092       5.29582144
C       10.16289768       7.01654655       5.87418143
C       10.90585808       8.15374581       6.14415429
C        8.34712445       8.38481665       5.00251034
60
Lattice="16.632191499999998 0.0 0.0 0.0 16.918427100000002 0.0 0.0 0.0 17.0170705" Properties=species:S:1:pos:R:3 pbc="T T T"
C       10.45283513       9.27366592      11.17120377
C       11.39020160       8.94086196      10.14832800
C        9.67025605       8.28388500      11.75960817
C       11.51110556       7.63011817       9.71605038
C       11.63887726       7.34294137       8.30058378
C       11.39203688      10.01231915       9.16738875
C       11.51627475       9.73585303       7.82388091
C       11.64145826       8.37621725       7.39433331
C        7.72837126       9.76405359      11.73140571
C        8.54082565      10.79043543      11.13572532
C        8.28256529       8.53250961      12.01275195
C        9.87870077      10.55164876      10.84699274
C       10.45699452      11.00649913       9.61613369
C        7.73431439      11.49711380      10.17300446
C        8.29338740      11.93509746       8.99673558
C        9.68107815      11.68880724       8.71865673
C        6.29029576       7.39572612      11.17840813
C        5.71725626       8.67423650      10.84892279
C        7.55208653       7.32692909      11.73159112
C        6.42020083       9.83655763      11.12619262
C        6.42322646      10.91046356      10.18406408
C        4.99069213       8.54223364       9.64321104
C        4.99324882       9.57536288       8.71211119
C        5.72301552      10.78222881       8.97458129
C        8.12976293       5.44341604      10.28765493
C        6.82131468       5.51390048       9.70717314
C        8.48787481       6.33261304      11.31059900
C        5.92116595       6.47540242      10.15641478
C        5.11590654       7.18262332       9.19290764
C        6.95098987       5.22954811       8.30436546
C        6.17513100       5.91175880       7.37458172
C        5.24015706       6.90597563       7.82483343
C       10.69892258       6.60347206      10.30514303
C       10.32952348       5.67945568       9.27862133
C        9.79785829       6.92271876      11.31401050
C        9.06573810       5.11408558       9.26182906
C        8.33869929       4.98332421       8.02013578
C       10.90911431       6.13605894       8.01986298
C       10.20904606       6.00789478       6.84447923
C        8.89794518       5.42124148       6.85894635
C        6.17943712       7.64452287       5.85494143
C        6.75355933       6.36650055       6.15725160
C        8.09145501       6.12788758       5.87941028
C        6.96199056       8.63437640       5.25790081
C        5.93306372      10.31479980       6.71217958
C        5.12095658       9.28809599       7.31692314
C        5.24198463       7.97737410       6.89308131
C        6.83422395       9.99553864       5.72001958
C        8.50216105      11.47512538       6.70604246
C        7.56617679      11.80441024       7.73772107
C        6.30242346      11.23884432       7.74482253
C        8.14411821      10.58581206       5.72124207
C       10.34184826       9.52284747       5.85328429
C       10.71099303      10.44316852       6.88503947
C        9.81067755      11.40462107       7.29904624
C        9.08001879       9.59159750       5.25742153
C        8.90392544       7.15438191       5.28930589
C       10.21212011       7.08187871       5.89118354
C       10.91494024       8.24431416       6.16904239
C        8.34970106       8.38594572       5.01240243
